NAME : rnd41_50.tsp.tsp.optbc.tour
TYPE : TOUR
DIMENSION : 50
TOUR_SECTION
1
13
23
14
25
46
15
22
47
34
12
41
7
48
32
26
19
33
49
27
11
20
36
28
18
30
4
6
9
5
45
38
37
29
31
44
35
43
16
40
10
24
17
21
2
3
39
50
8
42
-1